10	5
0	2	1	2
1	1	5
2	4	9	10	4	3
3	2	7	8
4	2	7	8
5	1	6
6	3	3	9	4
7	1	11
8	1	11
9	1	11
10	1	11
11	0
0	0	0	0	0	0	0
1	3	2	0	0	4	3
2	3	4	0	5	5	0
3	1	3	3	5	0	2
4	2	0	0	3	0	0
5	1	2	1	0	5	1
6	8	0	0	2	4	0
7	2	0	0	0	5	0
8	8	4	0	1	0	0
9	2	0	0	0	1	0
10	2	5	3	5	0	1
11	0	0	0	0	0	0
6	3	5	7	4
